n_res = 4;
rc = [ 21, 16, 16, 18 ];
n_tasks = 30;
d = [ 10, 3, 4, 9, 6, 4, 7, 2, 2, 4, 9, 7, 2, 3, 1, 1, 6, 6, 1, 2, 3, 8, 2, 3, 9, 5, 10, 9, 10, 5 ];
rr = [| 21, 21, 21, 21, 21, 21, 21, 21, 21, 21, 21, 21, 21, 21, 21, 21, 21, 21, 21, 21, 21, 21, 21, 21, 21, 21, 21, 21, 21, 21
      | 16, 16, 16, 16, 16, 16, 16, 16, 16, 16, 16, 16, 16, 16, 16, 16, 16, 16, 16, 16, 16, 16, 16, 16, 16, 16, 16, 16, 16, 16
      | 16, 16, 16, 16, 16, 16, 16, 16, 16, 16, 16, 16, 16, 16, 16, 16, 16, 16, 16, 16, 16, 16, 16, 16, 16, 16, 16, 16, 16, 16
      | 18, 18, 18, 18, 18, 18, 18, 18, 18, 18, 18, 18, 18, 18, 18, 18, 18, 18, 18, 18, 18, 18, 18, 18, 18, 18, 18, 18, 18, 18|];
suc = [ { 7, 10, 21 },
       { 4, 8, 9 },
       { 5, 11, 19 },
       { 6, 12, 18 },
       { 9, 10, 14 },
       { 13, 20, 30 },
       { 9, 11, 17 },
       { 14, 19, 25 },
       { 15, 20, 26 },
       { 18, 23, 24 },
       { 15, 16, 23 },
       { 14, 15, 17 },
       { 16, 21, 23 },
       { 16, 27, 29 },
       { 22, 30 },
       { 28 },
       { 22, 24 },
       { 20, 22, 26 },
       { 21, 24, 28 },
       { 25 },
       { 29 },
       { 25 },
       { 26 },
       { 30 },
       { 27 },
       { 27, 29 },
       { 28 },
       {  },
       {  },
       {  } ];
